LAMMPS data file. msi2lmp v3.9.8 / 06 Oct 2016 / CGCMM for Au_BTAH

    337 atoms
     15 bonds
     23 angles
     33 dihedrals
      7 impropers

  15 atom types
  15 bond types
  23 angle types
  33 dihedral types
   7 improper types

    -4.664820246    12.637779754 xlo xhi
     0.132331425    15.116822576 ylo yhi
   -24.533933832    44.302766168 zlo zhi
    -8.651300000     0.000000000     0.000000000 xy xz yz

Masses

   1 196.967000 # Au
   2  12.011150 # bhC1
   3  12.011150 # bhC2
   4  12.011150 # bhC3
   5  12.011150 # bhC4
   6  12.011150 # bhC5
   7  12.011150 # bhC6
   8  14.007000 # bhN1
   9  14.007000 # bhN2
  10  14.007000 # bhN3
  11   1.008000 # bhH1
  12   1.008000 # bhH2
  13   1.008000 # bhH5
  14   1.008000 # bhH6
  15   1.008000 # bhHn

Pair Coeffs # lj/cut/coul/long

   1   5.2902220416   2.6290134536 # Au
   2   0.0989999944   3.3141432470 # bhC1
   3   0.0989999944   3.3141432470 # bhC2
   4   0.0699999881   3.5500532624 # bhC3
   5   0.0699999881   3.5500532624 # bhC4
   6   0.0989999944   3.3141432470 # bhC5
   7   0.0989999944   3.3141432470 # bhC6
   8   0.2000000142   3.2963252376 # bhN1
   9   0.2000000142   3.2963252376 # bhN2
  10   0.2000000142   3.2963252376 # bhN3
  11   0.0300001052   2.4200365710 # bhH1
  12   0.0300001052   2.4200365710 # bhH2
  13   0.0300001052   2.4200365710 # bhH5
  14   0.0300001052   2.4200365710 # bhH6
  15   0.0473512033   0.3980865645 # bhHn

Bond Coeffs # harmonic

   1   305.0000     1.3750 # bhC1-bhC2
   2   305.0000     1.3750 # bhC1-bhC6
   3   340.0000     1.0800 # bhC1-bhH1
   4   300.0000     1.3600 # bhC2-bhC3
   5   340.0000     1.0800 # bhC2-bhH2
   6   360.0000     1.3850 # bhC3-bhC4
   7   400.0000     1.3800 # bhC3-bhN3
   8   300.0000     1.3600 # bhC4-bhC5
   9   400.0000     1.3800 # bhC4-bhN1
  10   305.0000     1.3750 # bhC5-bhC6
  11   340.0000     1.0800 # bhC5-bhH5
  12   340.0000     1.0800 # bhC6-bhH6
  13   360.0000     1.3550 # bhN1-bhN2
  14   474.0000     1.0100 # bhN1-bhHn
  15   340.0000     1.2900 # bhN2-bhN3

Angle Coeffs # harmonic

   1    40.0000   120.0000 # bhC2-bhC1-bhC6
   2    30.0000   120.0000 # bhC2-bhC1-bhH1
   3    30.0000   120.0000 # bhC6-bhC1-bhH1
   4    50.0000   120.0000 # bhC1-bhC2-bhC3
   5    30.0000   120.0000 # bhC1-bhC2-bhH2
   6    28.0000   126.0000 # bhC3-bhC2-bhH2
   7    50.0000   120.0000 # bhC2-bhC3-bhC4
   8   130.0000   130.0000 # bhC2-bhC3-bhN3
   9   110.0000   106.8000 # bhC4-bhC3-bhN3
  10    50.0000   120.0000 # bhC3-bhC4-bhC5
  11   110.0000   106.8000 # bhC3-bhC4-bhN1
  12   130.0000   132.6000 # bhC5-bhC4-bhN1
  13    50.0000   120.0000 # bhC4-bhC5-bhC6
  14    28.0000   126.0000 # bhC4-bhC5-bhH5
  15    30.0000   120.0000 # bhC6-bhC5-bhH5
  16    40.0000   120.0000 # bhC1-bhC6-bhC5
  17    30.0000   120.0000 # bhC1-bhC6-bhH6
  18    30.0000   120.0000 # bhC5-bhC6-bhH6
  19   110.0000   106.8000 # bhC4-bhN1-bhN2
  20    28.0000   126.0000 # bhC4-bhN1-bhHn
  21    32.0000   119.5000 # bhN2-bhN1-bhHn
  22   160.0000   102.2000 # bhN1-bhN2-bhN3
  23   110.0000   106.8000 # bhC3-bhN3-bhN2

Dihedral Coeffs # harmonic

  1     3.0000  -1   2 # bhC6-bhC1-bhC2-bhC3
  2     4.2000  -1   2 # bhC6-bhC1-bhC2-bhH2
  3     3.0000  -1   2 # bhH1-bhC1-bhC2-bhC3
  4     2.4000  -1   2 # bhH1-bhC1-bhC2-bhH2
  5     3.1000  -1   2 # bhC2-bhC1-bhC6-bhC5
  6     4.2000  -1   2 # bhC2-bhC1-bhC6-bhH6
  7     4.2000  -1   2 # bhH1-bhC1-bhC6-bhC5
  8     2.4000  -1   2 # bhH1-bhC1-bhC6-bhH6
  9     3.0000  -1   2 # bhC1-bhC2-bhC3-bhC4
 10     1.5000  -1   2 # bhC1-bhC2-bhC3-bhN3
 11     3.0000  -1   2 # bhH2-bhC2-bhC3-bhC4
 12     0.8000  -1   2 # bhH2-bhC2-bhC3-bhN3
 13     3.0000  -1   2 # bhC2-bhC3-bhC4-bhC5
 14     1.5000  -1   2 # bhC2-bhC3-bhC4-bhN1
 15     1.5000  -1   2 # bhN3-bhC3-bhC4-bhC5
 16    10.0000  -1   2 # bhN3-bhC3-bhC4-bhN1
 17     1.5000  -1   2 # bhC2-bhC3-bhN3-bhN2
 18     6.5000  -1   2 # bhC4-bhC3-bhN3-bhN2
 19     3.0000  -1   2 # bhC3-bhC4-bhC5-bhC6
 20     3.0000  -1   2 # bhC3-bhC4-bhC5-bhH5
 21     3.0000  -1   2 # bhN1-bhC4-bhC5-bhC6
 22     3.0000  -1   2 # bhN1-bhC4-bhC5-bhH5
 23     6.5000  -1   2 # bhC3-bhC4-bhN1-bhN2
 24     0.8500  -1   2 # bhC3-bhC4-bhN1-bhHn
 25     3.0000  -1   2 # bhC5-bhC4-bhN1-bhN2
 26     0.2000  -1   2 # bhC5-bhC4-bhN1-bhHn
 27     3.0000  -1   2 # bhC4-bhC5-bhC6-bhC1
 28     3.0000  -1   2 # bhC4-bhC5-bhC6-bhH6
 29     4.2000  -1   2 # bhH5-bhC5-bhC6-bhC1
 30     2.4000  -1   2 # bhH5-bhC5-bhC6-bhH6
 31    14.0000  -1   2 # bhC4-bhN1-bhN2-bhN3
 32     2.5000  -1   2 # bhHn-bhN1-bhN2-bhN3
 33    14.0000  -1   2 # bhN1-bhN2-bhN3-bhC3

Improper Coeffs # cvff

    1     0.3700  -1   2 # bhC2-bhC1-bhC6-bhH1
    2     0.3700  -1   2 # bhC1-bhC2-bhC3-bhH2
    3     0.3700  -1   2 # bhC2-bhC3-bhC4-bhN3
    4     0.3700  -1   2 # bhC3-bhC4-bhC5-bhN1
    5     0.3700  -1   2 # bhC4-bhC5-bhC6-bhH5
    6     0.3700  -1   2 # bhC1-bhC6-bhC5-bhH6
    7     0.5000  -1   2 # bhC4-bhN1-bhN2-bhHn

Atoms # full

      1      1   1  0.000000     8.628048710     5.498248151     4.709244073   0   0   0 # Au
      2      1   1  0.000000     7.186169595     4.665778856     7.063822809   0   0   0 # Au
      3      1   1  0.000000    -7.232672175     4.665778856     7.063822809   1   0   0 # Au
      4      1   1  0.000000    -8.674551290     7.163186742     7.063822809   1   0   0 # Au
      5      1   1  0.000000    -5.790793059     7.163186742     7.063822809   1   0   0 # Au
      6      1   1  0.000000    -7.232672175     6.330717447     9.418401544   1   0   0 # Au
      7      1   1  0.000000    -4.348913944     6.330717447     9.418401544   1   0   0 # Au
      8      1   1  0.000000    -5.790793059     8.828125332     9.418401544   1   0   0 # Au
      9      1   1  0.000000     5.744290480     7.163186742     7.063822809   0   0   0 # Au
     10      1   1  0.000000     4.302411365     6.330717447     9.418401544   0   0   0 # Au
     11      1   1  0.000000     7.186169595     6.330717447     9.418401544   0   0   0 # Au
     12      1   1  0.000000     5.744290480     8.828125332     9.418401544   0   0   0 # Au
     13      1   1  0.000000    -8.674551290     8.828125332     9.418401544   1   0   0 # Au
     14      1   1  0.000000     7.186169595     7.995656037    11.772980279   0   0   0 # Au
     15      1   1  0.000000    -7.232672175     7.995656037    11.772980279   1   0   0 # Au
     16      1   1  0.000000    -8.674551290    10.493063923    11.772980279   1   0   0 # Au
     17      1   1  0.000000    -7.232672175     9.660594628    14.127559014   1   0   0 # Au
     18      1   1  0.000000     2.860532250     8.828125332     9.418401544   0   0   0 # Au
     19      1   1  0.000000     1.418653134     7.995656037    11.772980279   0   0   0 # Au
     20      1   1  0.000000     4.302411365     7.995656037    11.772980279   0   0   0 # Au
     21      1   1  0.000000     2.860532250    10.493063923    11.772980279   0   0   0 # Au
     22      1   1  0.000000     5.744290480    10.493063923    11.772980279   0   0   0 # Au
     23      1   1  0.000000     4.302411365     9.660594628    14.127559014   0   0   0 # Au
     24      1   1  0.000000   -10.116430405     9.660594628    14.127559014   1   0   0 # Au
     25      1   1  0.000000   -11.558309520    12.158002514    14.127559014   1   0   0 # Au
     26      1   1  0.000000    -8.674551290    12.158002514    14.127559014   1   0   0 # Au
     27      1   1  0.000000   -10.116430405    11.325533218    16.482137750   1   0   0 # Au
     28      1   1  0.000000    -7.232672175    11.325533218    16.482137750   1   0   0 # Au
     29      1   1  0.000000    -8.674551290    13.822941104    16.482137750   1   0   0 # Au
     30      1   1  0.000000     8.628048710     2.168370970     7.063822809   0   0   0 # Au
     31      1   1  0.000000     7.186169595     1.335901675     9.418401544   0   0   0 # Au
     32      1   1  0.000000    10.069927825     1.335901675     9.418401544   0   0   0 # Au
     33      1   1  0.000000     8.628048710     3.833309561     9.418401544   0   0   0 # Au
     34      1   1  0.000000    -5.790793059     3.833309561     9.418401544   1   0   0 # Au
     35      1   1  0.000000    10.069927825     3.000840265    11.772980279   0   0   0 # Au
     36      1   1  0.000000    -4.348913944     3.000840265    11.772980279   1   0   0 # Au
     37      1   1  0.000000    -5.790793059     5.498248151    11.772980279   1   0   0 # Au
     38      1   1  0.000000    -4.348913944     4.665778856    14.127559014   1   0   0 # Au
     39      1   1  0.000000     5.744290480     3.833309561     9.418401544   0   0   0 # Au
     40      1   1  0.000000     4.302411365     3.000840265    11.772980279   0   0   0 # Au
     41      1   1  0.000000     7.186169595     3.000840265    11.772980279   0   0   0 # Au
     42      1   1  0.000000     5.744290480     5.498248151    11.772980279   0   0   0 # Au
     43      1   1  0.000000     8.628048710     5.498248151    11.772980279   0   0   0 # Au
     44      1   1  0.000000     7.186169595     4.665778856    14.127559014   0   0   0 # Au
     45      1   1  0.000000    -7.232672175     4.665778856    14.127559014   1   0   0 # Au
     46      1   1  0.000000    -8.674551290     7.163186742    14.127559014   1   0   0 # Au
     47      1   1  0.000000    -5.790793059     7.163186742    14.127559014   1   0   0 # Au
     48      1   1  0.000000    -7.232672175     6.330717447    16.482137750   1   0   0 # Au
     49      1   1  0.000000    -4.348913944     6.330717447    16.482137750   1   0   0 # Au
     50      1   1  0.000000    -5.790793059     8.828125332    16.482137750   1   0   0 # Au
     51      1   1  0.000000     2.860532250     5.498248151    11.772980279   0   0   0 # Au
     52      1   1  0.000000     1.418653134     4.665778856    14.127559014   0   0   0 # Au
     53      1   1  0.000000     4.302411365     4.665778856    14.127559014   0   0   0 # Au
     54      1   1  0.000000     2.860532250     7.163186742    14.127559014   0   0   0 # Au
     55      1   1  0.000000     5.744290480     7.163186742    14.127559014   0   0   0 # Au
     56      1   1  0.000000     4.302411365     6.330717447    16.482137750   0   0   0 # Au
     57      1   1  0.000000     7.186169595     6.330717447    16.482137750   0   0   0 # Au
     58      1   1  0.000000     5.744290480     8.828125332    16.482137750   0   0   0 # Au
     59      1   1  0.000000    -8.674551290     8.828125332    16.482137750   1   0   0 # Au
     60      1   1  0.000000     7.186169595     7.995656037    18.836716485   0   0   0 # Au
     61      1   1  0.000000    -7.232672175     7.995656037    18.836716485   1   0   0 # Au
     62      1   1  0.000000    -8.674551290    10.493063923    18.836716485   1   0   0 # Au
     63      1   1  0.000000     8.628048710     0.503432380    11.772980279   0   0   0 # Au
     64      1   1  0.000000    11.511806941     0.503432380    11.772980279   0   0   0 # Au
     65      1   1  0.000000    -5.790793059     2.168370970    14.127559014   1   0   0 # Au
     66      1   1  0.000000    -2.907034829     2.168370970    14.127559014   1   0   0 # Au
     67      1   1  0.000000    -4.348913944     1.335901675    16.482137750   1   0   0 # Au
     68      1   1  0.000000    -1.465155714     1.335901675    16.482137750   1   0   0 # Au
     69      1   1  0.000000    -2.907034829     3.833309561    16.482137750   1   0   0 # Au
     70      1   1  0.000000     5.744290480     0.503432380    11.772980279   0   0   0 # Au
     71      1   1  0.000000     5.744290480     2.168370970    14.127559014   0   0   0 # Au
     72      1   1  0.000000     8.628048710     2.168370970    14.127559014   0   0   0 # Au
     73      1   1  0.000000     7.186169595     1.335901675    16.482137750   0   0   0 # Au
     74      1   1  0.000000    10.069927825     1.335901675    16.482137750   0   0   0 # Au
     75      1   1  0.000000     8.628048710     3.833309561    16.482137750   0   0   0 # Au
     76      1   1  0.000000    -5.790793059     3.833309561    16.482137750   1   0   0 # Au
     77      1   1  0.000000    10.069927825     3.000840265    18.836716485   0   0   0 # Au
     78      1   1  0.000000    -4.348913944     3.000840265    18.836716485   1   0   0 # Au
     79      1   1  0.000000    -5.790793059     5.498248151    18.836716485   1   0   0 # Au
     80      1   1  0.000000     2.860532250     2.168370970    14.127559014   0   0   0 # Au
     81      1   1  0.000000     1.418653134     1.335901675    16.482137750   0   0   0 # Au
     82      1   1  0.000000     4.302411365     1.335901675    16.482137750   0   0   0 # Au
     83      1   1  0.000000     2.860532250     3.833309561    16.482137750   0   0   0 # Au
     84      1   1  0.000000     5.744290480     3.833309561    16.482137750   0   0   0 # Au
     85      1   1  0.000000     4.302411365     3.000840265    18.836716485   0   0   0 # Au
     86      1   1  0.000000     7.186169595     3.000840265    18.836716485   0   0   0 # Au
     87      1   1  0.000000     5.744290480     5.498248151    18.836716485   0   0   0 # Au
     88      1   1  0.000000     8.628048710     5.498248151    18.836716485   0   0   0 # Au
     89      1   1  0.000000    -0.023261336    10.493084335    11.773009147   0   0   0 # Au
     90      1   1  0.000000    -1.465140451     9.660615040    14.127587882   0   0   0 # Au
     91      1   1  0.000000     1.418617779     9.660615040    14.127587882   0   0   0 # Au
     92      1   1  0.000000    -0.023261336    12.158022926    14.127587882   0   0   0 # Au
     93      1   1  0.000000     2.860496894    12.158022926    14.127587882   0   0   0 # Au
     94      1   1  0.000000     1.418617779    11.325553631    16.482166617   0   0   0 # Au
     95      1   1  0.000000     4.302376009    11.325553631    16.482166617   0   0   0 # Au
     96      1   1  0.000000     2.860496894    13.822961517    16.482166617   0   0   0 # Au
     97      1   1  0.000000   -11.558344875    13.822961517    16.482166617   1   0   0 # Au
     98      1   1  0.000000     4.302376009    12.990492221    18.836745353   0   0   0 # Au
     99      1   1  0.000000   -10.116465760    12.990492221    18.836745353   1   0   0 # Au
    100      1   1  0.000000    -2.907019567    12.158022926    14.127587882   0   0   0 # Au
    101      1   1  0.000000    -4.348898682    11.325553631    16.482166617   0   0   0 # Au
    102      1   1  0.000000    -1.465140451    11.325553631    16.482166617   0   0   0 # Au
    103      1   1  0.000000    -2.907019567    13.822961517    16.482166617   0   0   0 # Au
    104      1   1  0.000000    -0.023261336    13.822961517    16.482166617   0   0   0 # Au
    105      1   1  0.000000    -1.465140451    12.990492221    18.836745353   0   0   0 # Au
    106      1   1  0.000000     1.418617779    12.990492221    18.836745353   0   0   0 # Au
    107      1   1  0.000000    -5.790777797    13.822961517    16.482166617   0   0   0 # Au
    108      1   1  0.000000    -7.232656912    12.990492221    18.836745353   0   0   0 # Au
    109      1   1  0.000000    -4.348898682    12.990492221    18.836745353   0   0   0 # Au
    110      1   1  0.000000    -0.023261336     7.163207154    14.127587882   0   0   0 # Au
    111      1   1  0.000000    -1.465140451     6.330737859    16.482166617   0   0   0 # Au
    112      1   1  0.000000     1.418617779     6.330737859    16.482166617   0   0   0 # Au
    113      1   1  0.000000    -0.023261336     8.828145745    16.482166617   0   0   0 # Au
    114      1   1  0.000000     2.860496894     8.828145745    16.482166617   0   0   0 # Au
    115      1   1  0.000000     1.418617779     7.995676450    18.836745353   0   0   0 # Au
    116      1   1  0.000000     4.302376009     7.995676450    18.836745353   0   0   0 # Au
    117      1   1  0.000000     2.860496894    10.493084335    18.836745353   0   0   0 # Au
    118      1   1  0.000000     5.744255125    10.493084335    18.836745353   0   0   0 # Au
    119      1   1  0.000000    -2.907019567     8.828145745    16.482166617   0   0   0 # Au
    120      1   1  0.000000    -4.348898682     7.995676450    18.836745353   0   0   0 # Au
    121      1   1  0.000000    -1.465140451     7.995676450    18.836745353   0   0   0 # Au
    122      1   1  0.000000    -2.907019567    10.493084335    18.836745353   0   0   0 # Au
    123      1   1  0.000000    -0.023261336    10.493084335    18.836745353   0   0   0 # Au
    124      1   1  0.000000    -5.790777797    10.493084335    18.836745353   0   0   0 # Au
    125      1   1  0.000000    -0.023261336     3.833329973    16.482166617   0   0   0 # Au
    126      1   1  0.000000    -1.465140451     3.000860678    18.836745353   0   0   0 # Au
    127      1   1  0.000000     1.418617779     3.000860678    18.836745353   0   0   0 # Au
    128      1   1  0.000000    -0.023261336     5.498268564    18.836745353   0   0   0 # Au
    129      1   1  0.000000     2.860496894     5.498268564    18.836745353   0   0   0 # Au
    130      1   1  0.000000    -2.907019567     5.498268564    18.836745353   0   0   0 # Au
    131      1   2 -0.126000     0.089006350     7.218657734    21.287157274   0   0   0 # bhC1
    132      1   3  0.087000     1.426707391     6.439023447    21.317831763   0   0   0 # bhC2
    133      1   4  0.493000     2.724269402     7.253181421    21.331847509   0   0   0 # bhC3
    134      1   5  0.174000     2.712791605     8.754279387    21.316703536   0   0   0 # bhC4
    135      1   6  0.049000     1.413610551     9.563494768    21.286027977   0   0   0 # bhC5
    136      1   7 -0.104000     0.082158208     8.774630519    21.271185349   0   0   0 # bhC6
    137      1   8 -0.609000     4.136973924     9.210645767    21.335682077   0   0   0 # bhN1
    138      1   9 -0.087000     5.020338399     8.006393851    21.362368345   0   0   0 # bhN2
    139      1  10 -0.501000     4.156888134     6.776125152    21.360330414   0   0   0 # bhN3
    140      1  11  0.011000    -0.898064958     6.648409379    21.276146522   0   0   0 # bhH1
    141      1  12  0.004000     1.445182363     5.299250744    21.329332908   0   0   0 # bhH2
    142      1  13  0.108000     1.426388090    10.703348521    21.274789984   0   0   0 # bhH5
    143      1  14  0.071000    -0.909350852     9.336749636    21.248199796   0   0   0 # bhH6
    144      1  15  0.430000     4.479753086    10.266384961    21.330775087   0   0   0 # bhHn
    145      1   1  0.000000   -10.116430405    14.655451224     0.000057735   1   0   0 # Au
    146      1   1  0.000000    -8.674551290    12.158043338     0.000057735   1   0   0 # Au
    147      1   1  0.000000   -10.116430405    11.325574043     2.354636470   1   0   0 # Au
    148      1   1  0.000000    -7.232672175    11.325574043     2.354636470   1   0   0 # Au
    149      1   1  0.000000    -8.674551290    13.822981929     2.354636470   1   0   0 # Au
    150      1   1  0.000000   -11.558309520    13.822981929     2.354636470   1   0   0 # Au
    151      1   1  0.000000     4.302411365    12.990512634     4.709215206   0   0   0 # Au
    152      1   1  0.000000   -10.116430405    12.990512634     4.709215206   1   0   0 # Au
    153      1   1  0.000000   -10.116430405    14.655451224     7.063793941   1   0   0 # Au
    154      1   1  0.000000     1.418653134    14.655451224     7.063793941   0   0   0 # Au
    155      1   1  0.000000   -13.000188635    14.655451224     7.063793941   1   0   0 # Au
    156      1   1  0.000000    -8.674551290     8.828166157     2.354636470   1   0   0 # Au
    157      1   1  0.000000     7.186169595     7.995696862     4.709215206   0   0   0 # Au
    158      1   1  0.000000    -7.232672175     7.995696862     4.709215206   1   0   0 # Au
    159      1   1  0.000000    -8.674551290    10.493104748     4.709215206   1   0   0 # Au
    160      1   1  0.000000    -7.232672175     9.660635453     7.063793941   1   0   0 # Au
    161      1   1  0.000000     5.744290480    10.493104748     4.709215206   0   0   0 # Au
    162      1   1  0.000000     4.302411365     9.660635453     7.063793941   0   0   0 # Au
    163      1   1  0.000000   -10.116430405     9.660635453     7.063793941   1   0   0 # Au
    164      1   1  0.000000   -11.558309520    12.158043338     7.063793941   1   0   0 # Au
    165      1   1  0.000000    -8.674551290    12.158043338     7.063793941   1   0   0 # Au
    166      1   1  0.000000   -10.116430405    11.325574043     9.418372676   1   0   0 # Au
    167      1   1  0.000000    -7.232672175    11.325574043     9.418372676   1   0   0 # Au
    168      1   1  0.000000    -8.674551290    13.822981929     9.418372676   1   0   0 # Au
    169      1   1  0.000000     2.860532250    12.158043338     7.063793941   0   0   0 # Au
    170      1   1  0.000000     1.418653134    11.325574043     9.418372676   0   0   0 # Au
    171      1   1  0.000000     4.302411365    11.325574043     9.418372676   0   0   0 # Au
    172      1   1  0.000000     2.860532250    13.822981929     9.418372676   0   0   0 # Au
    173      1   1  0.000000   -11.558309520    13.822981929     9.418372676   1   0   0 # Au
    174      1   1  0.000000     4.302411365    12.990512634    11.772951412   0   0   0 # Au
    175      1   1  0.000000   -10.116430405    12.990512634    11.772951412   1   0   0 # Au
    176      1   1  0.000000   -10.116430405    14.655451224    14.127530147   1   0   0 # Au
    177      1   1  0.000000    -7.232692267    14.655451224     0.000057735   0   0   0 # Au
    178      1   1  0.000000    -5.790813152    13.822981929     2.354636470   0   0   0 # Au
    179      1   1  0.000000    -7.232692267    12.990512634     4.709215206   0   0   0 # Au
    180      1   1  0.000000    -4.348934037    12.990512634     4.709215206   0   0   0 # Au
    181      1   1  0.000000    -4.348934037    14.655451224     7.063793941   0   0   0 # Au
    182      1   1  0.000000    -1.465175807    14.655451224     7.063793941   0   0   0 # Au
    183      1   1  0.000000    -7.232692267    14.655451224     7.063793941   0   0   0 # Au
    184      1   1  0.000000    -5.790813152    10.493104748     4.709215206   0   0   0 # Au
    185      1   1  0.000000    -4.348934037     9.660635453     7.063793941   0   0   0 # Au
    186      1   1  0.000000    -5.790813152    12.158043338     7.063793941   0   0   0 # Au
    187      1   1  0.000000    -2.907054922    12.158043338     7.063793941   0   0   0 # Au
    188      1   1  0.000000    -4.348934037    11.325574043     9.418372676   0   0   0 # Au
    189      1   1  0.000000    -1.465175807    11.325574043     9.418372676   0   0   0 # Au
    190      1   1  0.000000    -2.907054922    13.822981929     9.418372676   0   0   0 # Au
    191      1   1  0.000000    -5.790813152    13.822981929     9.418372676   0   0   0 # Au
    192      1   1  0.000000    -7.232692267    12.990512634    11.772951412   0   0   0 # Au
    193      1   1  0.000000    -4.348934037    12.990512634    11.772951412   0   0   0 # Au
    194      1   1  0.000000    -7.232692267    14.655451224    14.127530147   0   0   0 # Au
    195      1   1  0.000000    -0.023261336     2.168350558     0.000057735   0   0   0 # Au
    196      1   1  0.000000     2.860496894     2.168350558     0.000057735   0   0   0 # Au
    197      1   1  0.000000     1.418617779     1.335881262     2.354636470   0   0   0 # Au
    198      1   1  0.000000     4.302376009     1.335881262     2.354636470   0   0   0 # Au
    199      1   1  0.000000     2.860496894     3.833289148     2.354636470   0   0   0 # Au
    200      1   1  0.000000     5.744255125     3.833289148     2.354636470   0   0   0 # Au
    201      1   1  0.000000     4.302376009     3.000819853     4.709215206   0   0   0 # Au
    202      1   1  0.000000     7.186134240     3.000819853     4.709215206   0   0   0 # Au
    203      1   1  0.000000     5.744255125     5.498227739     4.709215206   0   0   0 # Au
    204      1   1  0.000000    -0.023261336     3.833289148     2.354636470   0   0   0 # Au
    205      1   1  0.000000    -1.465140451     3.000819853     4.709215206   0   0   0 # Au
    206      1   1  0.000000     1.418617779     3.000819853     4.709215206   0   0   0 # Au
    207      1   1  0.000000    -0.023261336     5.498227739     4.709215206   0   0   0 # Au
    208      1   1  0.000000     2.860496894     5.498227739     4.709215206   0   0   0 # Au
    209      1   1  0.000000     1.418617779     4.665758444     7.063793941   0   0   0 # Au
    210      1   1  0.000000     4.302376009     4.665758444     7.063793941   0   0   0 # Au
    211      1   1  0.000000     2.860496894     7.163166329     7.063793941   0   0   0 # Au
    212      1   1  0.000000    -2.907019567     5.498227739     4.709215206   0   0   0 # Au
    213      1   1  0.000000    -1.465140451     4.665758444     7.063793941   0   0   0 # Au
    214      1   1  0.000000    -2.907019567     7.163166329     7.063793941   0   0   0 # Au
    215      1   1  0.000000    -0.023261336     7.163166329     7.063793941   0   0   0 # Au
    216      1   1  0.000000    -1.465140451     6.330697034     9.418372676   0   0   0 # Au
    217      1   1  0.000000     1.418617779     6.330697034     9.418372676   0   0   0 # Au
    218      1   1  0.000000    -0.023261336     8.828104920     9.418372676   0   0   0 # Au
    219      1   1  0.000000     2.860496894     0.503411967     4.709215206   0   0   0 # Au
    220      1   1  0.000000     5.744255125     0.503411967     4.709215206   0   0   0 # Au
    221      1   1  0.000000     5.744255125     2.168350558     7.063793941   0   0   0 # Au
    222      1   1  0.000000    -0.023261336     0.503411967     4.709215206   0   0   0 # Au
    223      1   1  0.000000    -0.023261336     2.168350558     7.063793941   0   0   0 # Au
    224      1   1  0.000000     2.860496894     2.168350558     7.063793941   0   0   0 # Au
    225      1   1  0.000000     1.418617779     1.335881262     9.418372676   0   0   0 # Au
    226      1   1  0.000000     4.302376009     1.335881262     9.418372676   0   0   0 # Au
    227      1   1  0.000000     2.860496894     3.833289148     9.418372676   0   0   0 # Au
    228      1   1  0.000000    -0.023261336     3.833289148     9.418372676   0   0   0 # Au
    229      1   1  0.000000    -1.465140451     3.000819853    11.772951412   0   0   0 # Au
    230      1   1  0.000000     1.418617779     3.000819853    11.772951412   0   0   0 # Au
    231      1   1  0.000000    -0.023261336     5.498227739    11.772951412   0   0   0 # Au
    232      1   1  0.000000     2.860496894     0.503411967    11.772951412   0   0   0 # Au
    233      1   1  0.000000    -0.023261336     0.503411967    11.772951412   0   0   0 # Au
    234      1   1  0.000000    -0.023261336     2.168350558    14.127530147   0   0   0 # Au
    235      1   1  0.000000    -2.907054922     8.828125332     9.418401544   0   0   0 # Au
    236      1   1  0.000000    -4.348934037     7.995656037    11.772980279   0   0   0 # Au
    237      1   1  0.000000    -1.465175807     7.995656037    11.772980279   0   0   0 # Au
    238      1   1  0.000000    -2.907054922    10.493063923    11.772980279   0   0   0 # Au
    239      1   1  0.000000    -5.790813152    10.493063923    11.772980279   0   0   0 # Au
    240      1   1  0.000000    -4.348934037     9.660594628    14.127559014   0   0   0 # Au
    241      1   1  0.000000    -5.790813152    12.158002514    14.127559014   0   0   0 # Au
    242      1   1  0.000000    -2.907054922     5.498248151    11.772980279   0   0   0 # Au
    243      1   1  0.000000    -1.465175807     4.665778856    14.127559014   0   0   0 # Au
    244      1   1  0.000000    -2.907054922     7.163186742    14.127559014   0   0   0 # Au
    245      1   1  0.000000    -2.907034829     0.503391555    18.836745353   1   0   0 # Au
    246      1   1  0.000000     8.628048710     0.503391555    18.836745353   0   0   0 # Au
    247      1   1  0.000000    11.511806941     0.503391555    18.836745353   0   0   0 # Au
    248      1   1  0.000000     2.860532250     0.503391555    18.836745353   0   0   0 # Au
    249      1   1  0.000000     5.744290480     0.503391555    18.836745353   0   0   0 # Au
    250      1   1  0.000000    -2.906999474     2.168350558     0.000057735   1   0   0 # Au
    251      1   1  0.000000    -4.348878589     1.335881262     2.354636470   1   0   0 # Au
    252      1   1  0.000000    -1.465120358     1.335881262     2.354636470   1   0   0 # Au
    253      1   1  0.000000    -2.906999474     3.833289148     2.354636470   1   0   0 # Au
    254      1   1  0.000000    -5.790757704     3.833289148     2.354636470   1   0   0 # Au
    255      1   1  0.000000    10.069963181     3.000819853     4.709215206   0   0   0 # Au
    256      1   1  0.000000    -4.348878589     3.000819853     4.709215206   1   0   0 # Au
    257      1   1  0.000000    -5.790757704     5.498227739     4.709215206   1   0   0 # Au
    258      1   1  0.000000    -4.348878589     4.665758444     7.063793941   1   0   0 # Au
    259      1   1  0.000000    -2.906999474     0.503411967     4.709215206   1   0   0 # Au
    260      1   1  0.000000    11.511842296     0.503411967     4.709215206   0   0   0 # Au
    261      1   1  0.000000    -5.790757704     2.168350558     7.063793941   1   0   0 # Au
    262      1   1  0.000000    -2.906999474     2.168350558     7.063793941   1   0   0 # Au
    263      1   1  0.000000    -4.348878589     1.335881262     9.418372676   1   0   0 # Au
    264      1   1  0.000000    -1.465120358     1.335881262     9.418372676   1   0   0 # Au
    265      1   1  0.000000    -2.906999474     3.833289148     9.418372676   1   0   0 # Au
    266      1   1  0.000000    -2.906999474     0.503411967    11.772951412   1   0   0 # Au
    267      1   1  0.000000     1.418617779    14.655430812     0.000028868   0   0   0 # Au
    268      1   1  0.000000   -13.000223991    14.655430812     0.000028868   1   0   0 # Au
    269      1   1  0.000000    -4.348898682    14.655430812     0.000028868   0   0   0 # Au
    270      1   1  0.000000    -1.465140451    14.655430812     0.000028868   0   0   0 # Au
    271      1   1  0.000000     4.302376009     9.660615040     0.000028868   0   0   0 # Au
    272      1   1  0.000000   -10.116465760     9.660615040     0.000028868   1   0   0 # Au
    273      1   1  0.000000   -11.558344875    12.158022926     0.000028868   1   0   0 # Au
    274      1   1  0.000000    -1.465140451     9.660615040     0.000028868   0   0   0 # Au
    275      1   1  0.000000     1.418617779     9.660615040     0.000028868   0   0   0 # Au
    276      1   1  0.000000    -0.023261336    12.158022926     0.000028868   0   0   0 # Au
    277      1   1  0.000000     2.860496894    12.158022926     0.000028868   0   0   0 # Au
    278      1   1  0.000000     1.418617779    11.325553631     2.354607603   0   0   0 # Au
    279      1   1  0.000000     4.302376009    11.325553631     2.354607603   0   0   0 # Au
    280      1   1  0.000000     2.860496894    13.822961517     2.354607603   0   0   0 # Au
    281      1   1  0.000000    -4.348898682     9.660615040     0.000028868   0   0   0 # Au
    282      1   1  0.000000    -5.790777797    12.158022926     0.000028868   0   0   0 # Au
    283      1   1  0.000000    -2.907019567    12.158022926     0.000028868   0   0   0 # Au
    284      1   1  0.000000    -4.348898682    11.325553631     2.354607603   0   0   0 # Au
    285      1   1  0.000000    -1.465140451    11.325553631     2.354607603   0   0   0 # Au
    286      1   1  0.000000    -2.907019567    13.822961517     2.354607603   0   0   0 # Au
    287      1   1  0.000000    -0.023261336    13.822961517     2.354607603   0   0   0 # Au
    288      1   1  0.000000    -1.465140451    12.990492221     4.709186338   0   0   0 # Au
    289      1   1  0.000000     1.418617779    12.990492221     4.709186338   0   0   0 # Au
    290      1   1  0.000000     1.418617779     4.665799268     0.000028868   0   0   0 # Au
    291      1   1  0.000000     4.302376009     4.665799268     0.000028868   0   0   0 # Au
    292      1   1  0.000000     2.860496894     7.163207154     0.000028868   0   0   0 # Au
    293      1   1  0.000000     5.744255125     7.163207154     0.000028868   0   0   0 # Au
    294      1   1  0.000000     4.302376009     6.330737859     2.354607603   0   0   0 # Au
    295      1   1  0.000000     7.186134240     6.330737859     2.354607603   0   0   0 # Au
    296      1   1  0.000000     5.744255125     8.828145745     2.354607603   0   0   0 # Au
    297      1   1  0.000000    -1.465140451     4.665799268     0.000028868   0   0   0 # Au
    298      1   1  0.000000    -2.907019567     7.163207154     0.000028868   0   0   0 # Au
    299      1   1  0.000000    -0.023261336     7.163207154     0.000028868   0   0   0 # Au
    300      1   1  0.000000    -1.465140451     6.330737859     2.354607603   0   0   0 # Au
    301      1   1  0.000000     1.418617779     6.330737859     2.354607603   0   0   0 # Au
    302      1   1  0.000000    -0.023261336     8.828145745     2.354607603   0   0   0 # Au
    303      1   1  0.000000     2.860496894     8.828145745     2.354607603   0   0   0 # Au
    304      1   1  0.000000     1.418617779     7.995676450     4.709186338   0   0   0 # Au
    305      1   1  0.000000     4.302376009     7.995676450     4.709186338   0   0   0 # Au
    306      1   1  0.000000     2.860496894    10.493084335     4.709186338   0   0   0 # Au
    307      1   1  0.000000    -2.907019567     8.828145745     2.354607603   0   0   0 # Au
    308      1   1  0.000000    -4.348898682     7.995676450     4.709186338   0   0   0 # Au
    309      1   1  0.000000    -1.465140451     7.995676450     4.709186338   0   0   0 # Au
    310      1   1  0.000000    -2.907019567    10.493084335     4.709186338   0   0   0 # Au
    311      1   1  0.000000    -0.023261336    10.493084335     4.709186338   0   0   0 # Au
    312      1   1  0.000000    -1.465140451     9.660615040     7.063765073   0   0   0 # Au
    313      1   1  0.000000     1.418617779     9.660615040     7.063765073   0   0   0 # Au
    314      1   1  0.000000    -0.023261336    12.158022926     7.063765073   0   0   0 # Au
    315      1   1  0.000000    -5.790793059     2.168330145     0.000028868   1   0   0 # Au
    316      1   1  0.000000     5.744290480     2.168330145     0.000028868   0   0   0 # Au
    317      1   1  0.000000     8.628048710     2.168330145     0.000028868   0   0   0 # Au
    318      1   1  0.000000     7.186169595     1.335860850     2.354607603   0   0   0 # Au
    319      1   1  0.000000    10.069927825     1.335860850     2.354607603   0   0   0 # Au
    320      1   1  0.000000     8.628048710     3.833268736     2.354607603   0   0   0 # Au
    321      1   1  0.000000     8.628048710     0.503391555     4.709186338   0   0   0 # Au
    322      1   1  0.000000    -7.232636819     9.660615040     0.000028868   1   0   0 # Au
    323      1   1  0.000000    -4.348878589     4.665799268     0.000028868   1   0   0 # Au
    324      1   1  0.000000    -5.790757704     7.163207154     0.000028868   1   0   0 # Au
    325      1   1  0.000000    -7.232636819     6.330737859     2.354607603   1   0   0 # Au
    326      1   1  0.000000    -4.348878589     6.330737859     2.354607603   1   0   0 # Au
    327      1   1  0.000000    -5.790757704     8.828145745     2.354607603   1   0   0 # Au
    328      1   1  0.000000    -0.023261336    13.823002341     9.418401544   0   0   0 # Au
    329      1   1  0.000000    -1.465140451    12.990533046    11.772980279   0   0   0 # Au
    330      1   1  0.000000     1.418617779    12.990533046    11.772980279   0   0   0 # Au
    331      1   1  0.000000     1.418617779    14.655471637    14.127559014   0   0   0 # Au
    332      1   1  0.000000   -13.000223991    14.655471637    14.127559014   1   0   0 # Au
    333      1   1  0.000000    -4.348898682    14.655471637    14.127559014   0   0   0 # Au
    334      1   1  0.000000    -1.465140451    14.655471637    14.127559014   0   0   0 # Au
    335      1   1  0.000000     7.186169595     4.665778856     0.000000000   0   0   0 # Au
    336      1   1  0.000000    -7.232672175     4.665778856     0.000000000   1   0   0 # Au
    337      1   1  0.000000    -8.674551290     7.163186742     0.000000000   1   0   0 # Au

Bonds

     1   1    131    132
     2   2    131    136
     3   3    131    140
     4   4    132    133
     5   5    132    141
     6   6    133    134
     7   7    133    139
     8   8    134    135
     9   9    134    137
    10  10    135    136
    11  11    135    142
    12  12    136    143
    13  13    137    138
    14  14    137    144
    15  15    138    139

Angles

     1   1    132    131    136
     2   2    132    131    140
     3   3    136    131    140
     4   4    131    132    133
     5   5    131    132    141
     6   6    133    132    141
     7   7    132    133    134
     8   8    132    133    139
     9   9    134    133    139
    10  10    133    134    135
    11  11    133    134    137
    12  12    135    134    137
    13  13    134    135    136
    14  14    134    135    142
    15  15    136    135    142
    16  16    131    136    135
    17  17    131    136    143
    18  18    135    136    143
    19  19    134    137    138
    20  20    134    137    144
    21  21    138    137    144
    22  22    137    138    139
    23  23    133    139    138

Dihedrals

     1   1    136    131    132    133
     2   2    136    131    132    141
     3   3    140    131    132    133
     4   4    140    131    132    141
     5   5    132    131    136    135
     6   6    132    131    136    143
     7   7    140    131    136    135
     8   8    140    131    136    143
     9   9    131    132    133    134
    10  10    131    132    133    139
    11  11    141    132    133    134
    12  12    141    132    133    139
    13  13    132    133    134    135
    14  14    132    133    134    137
    15  15    139    133    134    135
    16  16    139    133    134    137
    17  17    132    133    139    138
    18  18    134    133    139    138
    19  19    133    134    135    136
    20  20    133    134    135    142
    21  21    137    134    135    136
    22  22    137    134    135    142
    23  23    133    134    137    138
    24  24    133    134    137    144
    25  25    135    134    137    138
    26  26    135    134    137    144
    27  27    134    135    136    131
    28  28    134    135    136    143
    29  29    142    135    136    131
    30  30    142    135    136    143
    31  31    134    137    138    139
    32  32    144    137    138    139
    33  33    137    138    139    133

Impropers

     1   1    132    131    136    140 
     2   2    131    132    133    141 
     3   3    132    133    134    139 
     4   4    133    134    135    137 
     5   5    134    135    136    142 
     6   6    131    136    135    143 
     7   7    134    137    138    144 

