LAMMPS data file. msi2lmp v3.9.8 / 06 Oct 2016 / CGCMM for BTAH_new

     14 atoms
     15 bonds
     23 angles
     33 dihedrals
      7 impropers

  14 atom types
  15 bond types
  23 angle types
  33 dihedral types
   7 improper types

    -6.700824879    10.601775121 xlo xhi
     0.668509802    15.653000953 ylo yhi
   -13.109180104    55.727519896 zlo zhi
    -8.651300000     0.000000000     0.000000000 xy xz yz

Masses

   1  12.011150 # bhC1
   2  12.011150 # bhC2
   3  12.011150 # bhC3
   4  12.011150 # bhC4
   5  12.011150 # bhC5
   6  12.011150 # bhC6
   7  14.007000 # bhN1
   8  14.007000 # bhN2
   9  14.007000 # bhN3
  10   1.008000 # bhH1
  11   1.008000 # bhH2
  12   1.008000 # bhH5
  13   1.008000 # bhH6
  14   1.008000 # bhHn

Pair Coeffs # lj/cut/coul/long

   1   0.0989999944   3.3141432470 # bhC1
   2   0.0989999944   3.3141432470 # bhC2
   3   0.0699999881   3.5500532624 # bhC3
   4   0.0699999881   3.5500532624 # bhC4
   5   0.0989999944   3.3141432470 # bhC5
   6   0.0989999944   3.3141432470 # bhC6
   7   0.2000000142   3.2963252376 # bhN1
   8   0.2000000142   3.2963252376 # bhN2
   9   0.2000000142   3.2963252376 # bhN3
  10   0.0300001052   2.4200365710 # bhH1
  11   0.0300001052   2.4200365710 # bhH2
  12   0.0300001052   2.4200365710 # bhH5
  13   0.0300001052   2.4200365710 # bhH6
  14   0.0473512033   0.3980865645 # bhHn

Bond Coeffs # harmonic

   1   305.0000     1.3750 # bhC1-bhC2
   2   305.0000     1.3750 # bhC1-bhC6
   3   340.0000     1.0800 # bhC1-bhH1
   4   300.0000     1.3600 # bhC2-bhC3
   5   340.0000     1.0800 # bhC2-bhH2
   6   360.0000     1.3850 # bhC3-bhC4
   7   400.0000     1.3800 # bhC3-bhN3
   8   300.0000     1.3600 # bhC4-bhC5
   9   400.0000     1.3800 # bhC4-bhN1
  10   305.0000     1.3750 # bhC5-bhC6
  11   340.0000     1.0800 # bhC5-bhH5
  12   340.0000     1.0800 # bhC6-bhH6
  13   360.0000     1.3550 # bhN1-bhN2
  14   474.0000     1.0100 # bhN1-bhHn
  15   340.0000     1.2900 # bhN2-bhN3

Angle Coeffs # harmonic

   1    40.0000   120.0000 # bhC2-bhC1-bhC6
   2    30.0000   120.0000 # bhC2-bhC1-bhH1
   3    30.0000   120.0000 # bhC6-bhC1-bhH1
   4    50.0000   120.0000 # bhC1-bhC2-bhC3
   5    30.0000   120.0000 # bhC1-bhC2-bhH2
   6    28.0000   126.0000 # bhC3-bhC2-bhH2
   7    50.0000   120.0000 # bhC2-bhC3-bhC4
   8   130.0000   130.0000 # bhC2-bhC3-bhN3
   9   110.0000   106.8000 # bhC4-bhC3-bhN3
  10    50.0000   120.0000 # bhC3-bhC4-bhC5
  11   110.0000   106.8000 # bhC3-bhC4-bhN1
  12   130.0000   132.6000 # bhC5-bhC4-bhN1
  13    50.0000   120.0000 # bhC4-bhC5-bhC6
  14    28.0000   126.0000 # bhC4-bhC5-bhH5
  15    30.0000   120.0000 # bhC6-bhC5-bhH5
  16    40.0000   120.0000 # bhC1-bhC6-bhC5
  17    30.0000   120.0000 # bhC1-bhC6-bhH6
  18    30.0000   120.0000 # bhC5-bhC6-bhH6
  19   110.0000   106.8000 # bhC4-bhN1-bhN2
  20    28.0000   126.0000 # bhC4-bhN1-bhHn
  21    32.0000   119.5000 # bhN2-bhN1-bhHn
  22   160.0000   102.2000 # bhN1-bhN2-bhN3
  23   110.0000   106.8000 # bhC3-bhN3-bhN2

Dihedral Coeffs # harmonic

  1     3.0000  -1   2 # bhC6-bhC1-bhC2-bhC3
  2     4.2000  -1   2 # bhC6-bhC1-bhC2-bhH2
  3     3.0000  -1   2 # bhH1-bhC1-bhC2-bhC3
  4     2.4000  -1   2 # bhH1-bhC1-bhC2-bhH2
  5     3.1000  -1   2 # bhC2-bhC1-bhC6-bhC5
  6     4.2000  -1   2 # bhC2-bhC1-bhC6-bhH6
  7     4.2000  -1   2 # bhH1-bhC1-bhC6-bhC5
  8     2.4000  -1   2 # bhH1-bhC1-bhC6-bhH6
  9     3.0000  -1   2 # bhC1-bhC2-bhC3-bhC4
 10     1.5000  -1   2 # bhC1-bhC2-bhC3-bhN3
 11     3.0000  -1   2 # bhH2-bhC2-bhC3-bhC4
 12     0.8000  -1   2 # bhH2-bhC2-bhC3-bhN3
 13     3.0000  -1   2 # bhC2-bhC3-bhC4-bhC5
 14     1.5000  -1   2 # bhC2-bhC3-bhC4-bhN1
 15     1.5000  -1   2 # bhN3-bhC3-bhC4-bhC5
 16    10.0000  -1   2 # bhN3-bhC3-bhC4-bhN1
 17     1.5000  -1   2 # bhC2-bhC3-bhN3-bhN2
 18     6.5000  -1   2 # bhC4-bhC3-bhN3-bhN2
 19     3.0000  -1   2 # bhC3-bhC4-bhC5-bhC6
 20     3.0000  -1   2 # bhC3-bhC4-bhC5-bhH5
 21     3.0000  -1   2 # bhN1-bhC4-bhC5-bhC6
 22     3.0000  -1   2 # bhN1-bhC4-bhC5-bhH5
 23     6.5000  -1   2 # bhC3-bhC4-bhN1-bhN2
 24     0.8500  -1   2 # bhC3-bhC4-bhN1-bhHn
 25     3.0000  -1   2 # bhC5-bhC4-bhN1-bhN2
 26     0.2000  -1   2 # bhC5-bhC4-bhN1-bhHn
 27     3.0000  -1   2 # bhC4-bhC5-bhC6-bhC1
 28     3.0000  -1   2 # bhC4-bhC5-bhC6-bhH6
 29     4.2000  -1   2 # bhH5-bhC5-bhC6-bhC1
 30     2.4000  -1   2 # bhH5-bhC5-bhC6-bhH6
 31    14.0000  -1   2 # bhC4-bhN1-bhN2-bhN3
 32     2.5000  -1   2 # bhHn-bhN1-bhN2-bhN3
 33    14.0000  -1   2 # bhN1-bhN2-bhN3-bhC3

Improper Coeffs # cvff

    1     0.3700  -1   2 # bhC2-bhC1-bhC6-bhH1
    2     0.3700  -1   2 # bhC1-bhC2-bhC3-bhH2
    3     0.3700  -1   2 # bhC2-bhC3-bhC4-bhN3
    4     0.3700  -1   2 # bhC3-bhC4-bhC5-bhN1
    5     0.3700  -1   2 # bhC4-bhC5-bhC6-bhH5
    6     0.3700  -1   2 # bhC1-bhC6-bhC5-bhH6
    7     0.5000  -1   2 # bhC4-bhN1-bhN2-bhHn

Atoms # full

      1      1   1 -0.126000     0.089006350     7.218657734    21.287157274   0   0   0 # bhC1
      2      1   2  0.087000     1.426707391     6.439023447    21.317831763   0   0   0 # bhC2
      3      1   3  0.493000     2.724269402     7.253181421    21.331847509   0   0   0 # bhC3
      4      1   4  0.174000     2.712791605     8.754279387    21.316703536   0   0   0 # bhC4
      5      1   5  0.049000     1.413610551     9.563494768    21.286027977   0   0   0 # bhC5
      6      1   6 -0.104000     0.082158208     8.774630519    21.271185349   0   0   0 # bhC6
      7      1   7 -0.609000     4.136973924     9.210645767    21.335682077   0   0   0 # bhN1
      8      1   8 -0.087000     5.020338399     8.006393851    21.362368345   0   0   0 # bhN2
      9      1   9 -0.501000     4.156888134     6.776125152    21.360330414   0   0   0 # bhN3
     10      1  10  0.011000    -0.898064958     6.648409379    21.276146522   0   0   0 # bhH1
     11      1  11  0.004000     1.445182363     5.299250744    21.329332908   0   0   0 # bhH2
     12      1  12  0.108000     1.426388090    10.703348521    21.274789984   0   0   0 # bhH5
     13      1  13  0.071000    -0.909350852     9.336749636    21.248199796   0   0   0 # bhH6
     14      1  14  0.430000     4.479753086    10.266384961    21.330775087   0   0   0 # bhHn

Bonds

     1   1      1      2
     2   2      1      6
     3   3      1     10
     4   4      2      3
     5   5      2     11
     6   6      3      4
     7   7      3      9
     8   8      4      5
     9   9      4      7
    10  10      5      6
    11  11      5     12
    12  12      6     13
    13  13      7      8
    14  14      7     14
    15  15      8      9

Angles

     1   1      2      1      6
     2   2      2      1     10
     3   3      6      1     10
     4   4      1      2      3
     5   5      1      2     11
     6   6      3      2     11
     7   7      2      3      4
     8   8      2      3      9
     9   9      4      3      9
    10  10      3      4      5
    11  11      3      4      7
    12  12      5      4      7
    13  13      4      5      6
    14  14      4      5     12
    15  15      6      5     12
    16  16      1      6      5
    17  17      1      6     13
    18  18      5      6     13
    19  19      4      7      8
    20  20      4      7     14
    21  21      8      7     14
    22  22      7      8      9
    23  23      3      9      8

Dihedrals

     1   1      6      1      2      3
     2   2      6      1      2     11
     3   3     10      1      2      3
     4   4     10      1      2     11
     5   5      2      1      6      5
     6   6      2      1      6     13
     7   7     10      1      6      5
     8   8     10      1      6     13
     9   9      1      2      3      4
    10  10      1      2      3      9
    11  11     11      2      3      4
    12  12     11      2      3      9
    13  13      2      3      4      5
    14  14      2      3      4      7
    15  15      9      3      4      5
    16  16      9      3      4      7
    17  17      2      3      9      8
    18  18      4      3      9      8
    19  19      3      4      5      6
    20  20      3      4      5     12
    21  21      7      4      5      6
    22  22      7      4      5     12
    23  23      3      4      7      8
    24  24      3      4      7     14
    25  25      5      4      7      8
    26  26      5      4      7     14
    27  27      4      5      6      1
    28  28      4      5      6     13
    29  29     12      5      6      1
    30  30     12      5      6     13
    31  31      4      7      8      9
    32  32     14      7      8      9
    33  33      7      8      9      3

Impropers

     1   1      2      1      6     10 
     2   2      1      2      3     11 
     3   3      2      3      4      9 
     4   4      3      4      5      7 
     5   5      4      5      6     12 
     6   6      1      6      5     13 
     7   7      4      7      8     14 

