LAMMPS data file. msi2lmp v3.9.8 / 06 Oct 2016 / CGCMM for Au_111

    323 atoms
      0 bonds
      0 angles
      0 dihedrals
      0 impropers

   1 atom types

    -4.576572367    12.726027633 xlo xhi
     0.109091495    15.093582647 ylo yhi
   -25.029124396    43.807575604 zlo zhi
    -8.651300000     0.000000000     0.000000000 xy xz yz

Masses

   1 196.967000 # Au

Pair Coeffs # lj/cut/coul/long

   1   5.2902220416   2.6290134536 # Au

Atoms # full

      1      1   1  0.000000     8.628048710     5.498248151     4.709244073   0   0   0 # Au
      2      1   1  0.000000     7.186169595     4.665778856     7.063822809   0   0   0 # Au
      3      1   1  0.000000    10.069927825     4.665778856     7.063822809   0   0   0 # Au
      4      1   1  0.000000     8.628048710     7.163186742     7.063822809   0   0   0 # Au
      5      1   1  0.000000    -5.790793059     7.163186742     7.063822809   1   0   0 # Au
      6      1   1  0.000000    -7.232672175     6.330717447     9.418401544   1   0   0 # Au
      7      1   1  0.000000    -4.348913944     6.330717447     9.418401544   1   0   0 # Au
      8      1   1  0.000000    -5.790793059     8.828125332     9.418401544   1   0   0 # Au
      9      1   1  0.000000     5.744290480     7.163186742     7.063822809   0   0   0 # Au
     10      1   1  0.000000     4.302411365     6.330717447     9.418401544   0   0   0 # Au
     11      1   1  0.000000     7.186169595     6.330717447     9.418401544   0   0   0 # Au
     12      1   1  0.000000     5.744290480     8.828125332     9.418401544   0   0   0 # Au
     13      1   1  0.000000    -8.674551290     8.828125332     9.418401544   1   0   0 # Au
     14      1   1  0.000000     7.186169595     7.995656037    11.772980279   0   0   0 # Au
     15      1   1  0.000000    -7.232672175     7.995656037    11.772980279   1   0   0 # Au
     16      1   1  0.000000    -8.674551290    10.493063923    11.772980279   1   0   0 # Au
     17      1   1  0.000000    -7.232672175     9.660594628    14.127559014   1   0   0 # Au
     18      1   1  0.000000     2.860532250     8.828125332     9.418401544   0   0   0 # Au
     19      1   1  0.000000     1.418653134     7.995656037    11.772980279   0   0   0 # Au
     20      1   1  0.000000     4.302411365     7.995656037    11.772980279   0   0   0 # Au
     21      1   1  0.000000     2.860532250    10.493063923    11.772980279   0   0   0 # Au
     22      1   1  0.000000     5.744290480    10.493063923    11.772980279   0   0   0 # Au
     23      1   1  0.000000     4.302411365     9.660594628    14.127559014   0   0   0 # Au
     24      1   1  0.000000     7.186169595     9.660594628    14.127559014   0   0   0 # Au
     25      1   1  0.000000     5.744290480    12.158002514    14.127559014   0   0   0 # Au
     26      1   1  0.000000    -8.674551290    12.158002514    14.127559014   1   0   0 # Au
     27      1   1  0.000000   -10.116430405    11.325533218    16.482137750   1   0   0 # Au
     28      1   1  0.000000    -7.232672175    11.325533218    16.482137750   1   0   0 # Au
     29      1   1  0.000000    -8.674551290    13.822941104    16.482137750   1   0   0 # Au
     30      1   1  0.000000     8.628048710     2.168370970     7.063822809   0   0   0 # Au
     31      1   1  0.000000     7.186169595     1.335901675     9.418401544   0   0   0 # Au
     32      1   1  0.000000    10.069927825     1.335901675     9.418401544   0   0   0 # Au
     33      1   1  0.000000     8.628048710     3.833309561     9.418401544   0   0   0 # Au
     34      1   1  0.000000    -5.790793059     3.833309561     9.418401544   1   0   0 # Au
     35      1   1  0.000000    10.069927825     3.000840265    11.772980279   0   0   0 # Au
     36      1   1  0.000000    -4.348913944     3.000840265    11.772980279   1   0   0 # Au
     37      1   1  0.000000    -5.790793059     5.498248151    11.772980279   1   0   0 # Au
     38      1   1  0.000000    -4.348913944     4.665778856    14.127559014   1   0   0 # Au
     39      1   1  0.000000     5.744290480     3.833309561     9.418401544   0   0   0 # Au
     40      1   1  0.000000     4.302411365     3.000840265    11.772980279   0   0   0 # Au
     41      1   1  0.000000     7.186169595     3.000840265    11.772980279   0   0   0 # Au
     42      1   1  0.000000     5.744290480     5.498248151    11.772980279   0   0   0 # Au
     43      1   1  0.000000     8.628048710     5.498248151    11.772980279   0   0   0 # Au
     44      1   1  0.000000     7.186169595     4.665778856    14.127559014   0   0   0 # Au
     45      1   1  0.000000    10.069927825     4.665778856    14.127559014   0   0   0 # Au
     46      1   1  0.000000     8.628048710     7.163186742    14.127559014   0   0   0 # Au
     47      1   1  0.000000    -5.790793059     7.163186742    14.127559014   1   0   0 # Au
     48      1   1  0.000000    -7.232672175     6.330717447    16.482137750   1   0   0 # Au
     49      1   1  0.000000    -4.348913944     6.330717447    16.482137750   1   0   0 # Au
     50      1   1  0.000000    -5.790793059     8.828125332    16.482137750   1   0   0 # Au
     51      1   1  0.000000     2.860532250     5.498248151    11.772980279   0   0   0 # Au
     52      1   1  0.000000     1.418653134     4.665778856    14.127559014   0   0   0 # Au
     53      1   1  0.000000     4.302411365     4.665778856    14.127559014   0   0   0 # Au
     54      1   1  0.000000     2.860532250     7.163186742    14.127559014   0   0   0 # Au
     55      1   1  0.000000     5.744290480     7.163186742    14.127559014   0   0   0 # Au
     56      1   1  0.000000     4.302411365     6.330717447    16.482137750   0   0   0 # Au
     57      1   1  0.000000     7.186169595     6.330717447    16.482137750   0   0   0 # Au
     58      1   1  0.000000     5.744290480     8.828125332    16.482137750   0   0   0 # Au
     59      1   1  0.000000    -8.674551290     8.828125332    16.482137750   1   0   0 # Au
     60      1   1  0.000000     7.186169595     7.995656037    18.836716485   0   0   0 # Au
     61      1   1  0.000000    -7.232672175     7.995656037    18.836716485   1   0   0 # Au
     62      1   1  0.000000    -8.674551290    10.493063923    18.836716485   1   0   0 # Au
     63      1   1  0.000000     8.628048710     0.503432380    11.772980279   0   0   0 # Au
     64      1   1  0.000000    11.511806941     0.503432380    11.772980279   0   0   0 # Au
     65      1   1  0.000000    11.511806941     2.168370970    14.127559014   0   0   0 # Au
     66      1   1  0.000000    -2.907034829     2.168370970    14.127559014   1   0   0 # Au
     67      1   1  0.000000    -4.348913944     1.335901675    16.482137750   1   0   0 # Au
     68      1   1  0.000000    -1.465155714     1.335901675    16.482137750   1   0   0 # Au
     69      1   1  0.000000    -2.907034829     3.833309561    16.482137750   1   0   0 # Au
     70      1   1  0.000000     5.744290480     0.503432380    11.772980279   0   0   0 # Au
     71      1   1  0.000000     5.744290480     2.168370970    14.127559014   0   0   0 # Au
     72      1   1  0.000000     8.628048710     2.168370970    14.127559014   0   0   0 # Au
     73      1   1  0.000000     7.186169595     1.335901675    16.482137750   0   0   0 # Au
     74      1   1  0.000000    10.069927825     1.335901675    16.482137750   0   0   0 # Au
     75      1   1  0.000000     8.628048710     3.833309561    16.482137750   0   0   0 # Au
     76      1   1  0.000000    -5.790793059     3.833309561    16.482137750   1   0   0 # Au
     77      1   1  0.000000    10.069927825     3.000840265    18.836716485   0   0   0 # Au
     78      1   1  0.000000    -4.348913944     3.000840265    18.836716485   1   0   0 # Au
     79      1   1  0.000000    -5.790793059     5.498248151    18.836716485   1   0   0 # Au
     80      1   1  0.000000     2.860532250     2.168370970    14.127559014   0   0   0 # Au
     81      1   1  0.000000     1.418653134     1.335901675    16.482137750   0   0   0 # Au
     82      1   1  0.000000     4.302411365     1.335901675    16.482137750   0   0   0 # Au
     83      1   1  0.000000     2.860532250     3.833309561    16.482137750   0   0   0 # Au
     84      1   1  0.000000     5.744290480     3.833309561    16.482137750   0   0   0 # Au
     85      1   1  0.000000     4.302411365     3.000840265    18.836716485   0   0   0 # Au
     86      1   1  0.000000     7.186169595     3.000840265    18.836716485   0   0   0 # Au
     87      1   1  0.000000     5.744290480     5.498248151    18.836716485   0   0   0 # Au
     88      1   1  0.000000     8.628048710     5.498248151    18.836716485   0   0   0 # Au
     89      1   1  0.000000    -0.023261336    10.493084335    11.773009147   0   0   0 # Au
     90      1   1  0.000000    -1.465140451     9.660615040    14.127587882   0   0   0 # Au
     91      1   1  0.000000     1.418617779     9.660615040    14.127587882   0   0   0 # Au
     92      1   1  0.000000    -0.023261336    12.158022926    14.127587882   0   0   0 # Au
     93      1   1  0.000000     2.860496894    12.158022926    14.127587882   0   0   0 # Au
     94      1   1  0.000000     1.418617779    11.325553631    16.482166617   0   0   0 # Au
     95      1   1  0.000000     4.302376009    11.325553631    16.482166617   0   0   0 # Au
     96      1   1  0.000000     2.860496894    13.822961517    16.482166617   0   0   0 # Au
     97      1   1  0.000000   -11.558344875    13.822961517    16.482166617   1   0   0 # Au
     98      1   1  0.000000     4.302376009    12.990492221    18.836745353   0   0   0 # Au
     99      1   1  0.000000   -10.116465760    12.990492221    18.836745353   1   0   0 # Au
    100      1   1  0.000000    -2.907019567    12.158022926    14.127587882   0   0   0 # Au
    101      1   1  0.000000    -4.348898682    11.325553631    16.482166617   0   0   0 # Au
    102      1   1  0.000000    -1.465140451    11.325553631    16.482166617   0   0   0 # Au
    103      1   1  0.000000    -2.907019567    13.822961517    16.482166617   0   0   0 # Au
    104      1   1  0.000000    -0.023261336    13.822961517    16.482166617   0   0   0 # Au
    105      1   1  0.000000    -1.465140451    12.990492221    18.836745353   0   0   0 # Au
    106      1   1  0.000000     1.418617779    12.990492221    18.836745353   0   0   0 # Au
    107      1   1  0.000000    -5.790777797    13.822961517    16.482166617   0   0   0 # Au
    108      1   1  0.000000    -7.232656912    12.990492221    18.836745353   0   0   0 # Au
    109      1   1  0.000000    -4.348898682    12.990492221    18.836745353   0   0   0 # Au
    110      1   1  0.000000    -0.023261336     7.163207154    14.127587882   0   0   0 # Au
    111      1   1  0.000000    -1.465140451     6.330737859    16.482166617   0   0   0 # Au
    112      1   1  0.000000     1.418617779     6.330737859    16.482166617   0   0   0 # Au
    113      1   1  0.000000    -0.023261336     8.828145745    16.482166617   0   0   0 # Au
    114      1   1  0.000000     2.860496894     8.828145745    16.482166617   0   0   0 # Au
    115      1   1  0.000000     1.418617779     7.995676450    18.836745353   0   0   0 # Au
    116      1   1  0.000000     4.302376009     7.995676450    18.836745353   0   0   0 # Au
    117      1   1  0.000000     2.860496894    10.493084335    18.836745353   0   0   0 # Au
    118      1   1  0.000000     5.744255125    10.493084335    18.836745353   0   0   0 # Au
    119      1   1  0.000000    -2.907019567     8.828145745    16.482166617   0   0   0 # Au
    120      1   1  0.000000    -4.348898682     7.995676450    18.836745353   0   0   0 # Au
    121      1   1  0.000000    -1.465140451     7.995676450    18.836745353   0   0   0 # Au
    122      1   1  0.000000    -2.907019567    10.493084335    18.836745353   0   0   0 # Au
    123      1   1  0.000000    -0.023261336    10.493084335    18.836745353   0   0   0 # Au
    124      1   1  0.000000    -5.790777797    10.493084335    18.836745353   0   0   0 # Au
    125      1   1  0.000000    -0.023261336     3.833329973    16.482166617   0   0   0 # Au
    126      1   1  0.000000    -1.465140451     3.000860678    18.836745353   0   0   0 # Au
    127      1   1  0.000000     1.418617779     3.000860678    18.836745353   0   0   0 # Au
    128      1   1  0.000000    -0.023261336     5.498268564    18.836745353   0   0   0 # Au
    129      1   1  0.000000     2.860496894     5.498268564    18.836745353   0   0   0 # Au
    130      1   1  0.000000    -2.907019567     5.498268564    18.836745353   0   0   0 # Au
    131      1   1  0.000000   -10.116430405    14.655451224     0.000057735   1   0   0 # Au
    132      1   1  0.000000    -8.674551290    12.158043338     0.000057735   1   0   0 # Au
    133      1   1  0.000000   -10.116430405    11.325574043     2.354636470   1   0   0 # Au
    134      1   1  0.000000    -7.232672175    11.325574043     2.354636470   1   0   0 # Au
    135      1   1  0.000000    -8.674551290    13.822981929     2.354636470   1   0   0 # Au
    136      1   1  0.000000   -11.558309520    13.822981929     2.354636470   1   0   0 # Au
    137      1   1  0.000000     4.302411365    12.990512634     4.709215206   0   0   0 # Au
    138      1   1  0.000000   -10.116430405    12.990512634     4.709215206   1   0   0 # Au
    139      1   1  0.000000   -10.116430405    14.655451224     7.063793941   1   0   0 # Au
    140      1   1  0.000000     1.418653134    14.655451224     7.063793941   0   0   0 # Au
    141      1   1  0.000000     4.302411365    14.655451224     7.063793941   0   0   0 # Au
    142      1   1  0.000000    -8.674551290     8.828166157     2.354636470   1   0   0 # Au
    143      1   1  0.000000     7.186169595     7.995696862     4.709215206   0   0   0 # Au
    144      1   1  0.000000    -7.232672175     7.995696862     4.709215206   1   0   0 # Au
    145      1   1  0.000000    -8.674551290    10.493104748     4.709215206   1   0   0 # Au
    146      1   1  0.000000    -7.232672175     9.660635453     7.063793941   1   0   0 # Au
    147      1   1  0.000000     5.744290480    10.493104748     4.709215206   0   0   0 # Au
    148      1   1  0.000000     4.302411365     9.660635453     7.063793941   0   0   0 # Au
    149      1   1  0.000000     7.186169595     9.660635453     7.063793941   0   0   0 # Au
    150      1   1  0.000000     5.744290480    12.158043338     7.063793941   0   0   0 # Au
    151      1   1  0.000000    -8.674551290    12.158043338     7.063793941   1   0   0 # Au
    152      1   1  0.000000   -10.116430405    11.325574043     9.418372676   1   0   0 # Au
    153      1   1  0.000000    -7.232672175    11.325574043     9.418372676   1   0   0 # Au
    154      1   1  0.000000    -8.674551290    13.822981929     9.418372676   1   0   0 # Au
    155      1   1  0.000000     2.860532250    12.158043338     7.063793941   0   0   0 # Au
    156      1   1  0.000000     1.418653134    11.325574043     9.418372676   0   0   0 # Au
    157      1   1  0.000000     4.302411365    11.325574043     9.418372676   0   0   0 # Au
    158      1   1  0.000000     2.860532250    13.822981929     9.418372676   0   0   0 # Au
    159      1   1  0.000000   -11.558309520    13.822981929     9.418372676   1   0   0 # Au
    160      1   1  0.000000     4.302411365    12.990512634    11.772951412   0   0   0 # Au
    161      1   1  0.000000   -10.116430405    12.990512634    11.772951412   1   0   0 # Au
    162      1   1  0.000000   -10.116430405    14.655451224    14.127530147   1   0   0 # Au
    163      1   1  0.000000    -7.232692267    14.655451224     0.000057735   0   0   0 # Au
    164      1   1  0.000000    -5.790813152    13.822981929     2.354636470   0   0   0 # Au
    165      1   1  0.000000    -7.232692267    12.990512634     4.709215206   0   0   0 # Au
    166      1   1  0.000000    -4.348934037    12.990512634     4.709215206   0   0   0 # Au
    167      1   1  0.000000    -4.348934037    14.655451224     7.063793941   0   0   0 # Au
    168      1   1  0.000000    -1.465175807    14.655451224     7.063793941   0   0   0 # Au
    169      1   1  0.000000    -7.232692267    14.655451224     7.063793941   0   0   0 # Au
    170      1   1  0.000000    -5.790813152    10.493104748     4.709215206   0   0   0 # Au
    171      1   1  0.000000    -4.348934037     9.660635453     7.063793941   0   0   0 # Au
    172      1   1  0.000000    -5.790813152    12.158043338     7.063793941   0   0   0 # Au
    173      1   1  0.000000    -2.907054922    12.158043338     7.063793941   0   0   0 # Au
    174      1   1  0.000000    -4.348934037    11.325574043     9.418372676   0   0   0 # Au
    175      1   1  0.000000    -1.465175807    11.325574043     9.418372676   0   0   0 # Au
    176      1   1  0.000000    -2.907054922    13.822981929     9.418372676   0   0   0 # Au
    177      1   1  0.000000    -5.790813152    13.822981929     9.418372676   0   0   0 # Au
    178      1   1  0.000000    -7.232692267    12.990512634    11.772951412   0   0   0 # Au
    179      1   1  0.000000    -4.348934037    12.990512634    11.772951412   0   0   0 # Au
    180      1   1  0.000000    -7.232692267    14.655451224    14.127530147   0   0   0 # Au
    181      1   1  0.000000    -0.023261336     2.168350558     0.000057735   0   0   0 # Au
    182      1   1  0.000000     2.860496894     2.168350558     0.000057735   0   0   0 # Au
    183      1   1  0.000000     1.418617779     1.335881262     2.354636470   0   0   0 # Au
    184      1   1  0.000000     4.302376009     1.335881262     2.354636470   0   0   0 # Au
    185      1   1  0.000000     2.860496894     3.833289148     2.354636470   0   0   0 # Au
    186      1   1  0.000000     5.744255125     3.833289148     2.354636470   0   0   0 # Au
    187      1   1  0.000000     4.302376009     3.000819853     4.709215206   0   0   0 # Au
    188      1   1  0.000000     7.186134240     3.000819853     4.709215206   0   0   0 # Au
    189      1   1  0.000000     5.744255125     5.498227739     4.709215206   0   0   0 # Au
    190      1   1  0.000000    -0.023261336     3.833289148     2.354636470   0   0   0 # Au
    191      1   1  0.000000    -1.465140451     3.000819853     4.709215206   0   0   0 # Au
    192      1   1  0.000000     1.418617779     3.000819853     4.709215206   0   0   0 # Au
    193      1   1  0.000000    -0.023261336     5.498227739     4.709215206   0   0   0 # Au
    194      1   1  0.000000     2.860496894     5.498227739     4.709215206   0   0   0 # Au
    195      1   1  0.000000     1.418617779     4.665758444     7.063793941   0   0   0 # Au
    196      1   1  0.000000     4.302376009     4.665758444     7.063793941   0   0   0 # Au
    197      1   1  0.000000     2.860496894     7.163166329     7.063793941   0   0   0 # Au
    198      1   1  0.000000    -2.907019567     5.498227739     4.709215206   0   0   0 # Au
    199      1   1  0.000000    -1.465140451     4.665758444     7.063793941   0   0   0 # Au
    200      1   1  0.000000    -2.907019567     7.163166329     7.063793941   0   0   0 # Au
    201      1   1  0.000000    -0.023261336     7.163166329     7.063793941   0   0   0 # Au
    202      1   1  0.000000    -1.465140451     6.330697034     9.418372676   0   0   0 # Au
    203      1   1  0.000000     1.418617779     6.330697034     9.418372676   0   0   0 # Au
    204      1   1  0.000000    -0.023261336     8.828104920     9.418372676   0   0   0 # Au
    205      1   1  0.000000     2.860496894     0.503411967     4.709215206   0   0   0 # Au
    206      1   1  0.000000     5.744255125     0.503411967     4.709215206   0   0   0 # Au
    207      1   1  0.000000     5.744255125     2.168350558     7.063793941   0   0   0 # Au
    208      1   1  0.000000    -0.023261336     0.503411967     4.709215206   0   0   0 # Au
    209      1   1  0.000000    -0.023261336     2.168350558     7.063793941   0   0   0 # Au
    210      1   1  0.000000     2.860496894     2.168350558     7.063793941   0   0   0 # Au
    211      1   1  0.000000     1.418617779     1.335881262     9.418372676   0   0   0 # Au
    212      1   1  0.000000     4.302376009     1.335881262     9.418372676   0   0   0 # Au
    213      1   1  0.000000     2.860496894     3.833289148     9.418372676   0   0   0 # Au
    214      1   1  0.000000    -0.023261336     3.833289148     9.418372676   0   0   0 # Au
    215      1   1  0.000000    -1.465140451     3.000819853    11.772951412   0   0   0 # Au
    216      1   1  0.000000     1.418617779     3.000819853    11.772951412   0   0   0 # Au
    217      1   1  0.000000    -0.023261336     5.498227739    11.772951412   0   0   0 # Au
    218      1   1  0.000000     2.860496894     0.503411967    11.772951412   0   0   0 # Au
    219      1   1  0.000000    -0.023261336     0.503411967    11.772951412   0   0   0 # Au
    220      1   1  0.000000    -0.023261336     2.168350558    14.127530147   0   0   0 # Au
    221      1   1  0.000000    -2.907054922     8.828125332     9.418401544   0   0   0 # Au
    222      1   1  0.000000    -4.348934037     7.995656037    11.772980279   0   0   0 # Au
    223      1   1  0.000000    -1.465175807     7.995656037    11.772980279   0   0   0 # Au
    224      1   1  0.000000    -2.907054922    10.493063923    11.772980279   0   0   0 # Au
    225      1   1  0.000000    -5.790813152    10.493063923    11.772980279   0   0   0 # Au
    226      1   1  0.000000    -4.348934037     9.660594628    14.127559014   0   0   0 # Au
    227      1   1  0.000000    -5.790813152    12.158002514    14.127559014   0   0   0 # Au
    228      1   1  0.000000    -2.907054922     5.498248151    11.772980279   0   0   0 # Au
    229      1   1  0.000000    -1.465175807     4.665778856    14.127559014   0   0   0 # Au
    230      1   1  0.000000    -2.907054922     7.163186742    14.127559014   0   0   0 # Au
    231      1   1  0.000000    -2.907034829     0.503391555    18.836745353   1   0   0 # Au
    232      1   1  0.000000     8.628048710     0.503391555    18.836745353   0   0   0 # Au
    233      1   1  0.000000    11.511806941     0.503391555    18.836745353   0   0   0 # Au
    234      1   1  0.000000     2.860532250     0.503391555    18.836745353   0   0   0 # Au
    235      1   1  0.000000     5.744290480     0.503391555    18.836745353   0   0   0 # Au
    236      1   1  0.000000    -2.906999474     2.168350558     0.000057735   1   0   0 # Au
    237      1   1  0.000000    -4.348878589     1.335881262     2.354636470   1   0   0 # Au
    238      1   1  0.000000    -1.465120358     1.335881262     2.354636470   1   0   0 # Au
    239      1   1  0.000000    -2.906999474     3.833289148     2.354636470   1   0   0 # Au
    240      1   1  0.000000    -5.790757704     3.833289148     2.354636470   1   0   0 # Au
    241      1   1  0.000000    10.069963181     3.000819853     4.709215206   0   0   0 # Au
    242      1   1  0.000000    -4.348878589     3.000819853     4.709215206   1   0   0 # Au
    243      1   1  0.000000    -5.790757704     5.498227739     4.709215206   1   0   0 # Au
    244      1   1  0.000000    -4.348878589     4.665758444     7.063793941   1   0   0 # Au
    245      1   1  0.000000    -2.906999474     0.503411967     4.709215206   1   0   0 # Au
    246      1   1  0.000000    11.511842296     0.503411967     4.709215206   0   0   0 # Au
    247      1   1  0.000000    11.511842296     2.168350558     7.063793941   0   0   0 # Au
    248      1   1  0.000000    -2.906999474     2.168350558     7.063793941   1   0   0 # Au
    249      1   1  0.000000    -4.348878589     1.335881262     9.418372676   1   0   0 # Au
    250      1   1  0.000000    -1.465120358     1.335881262     9.418372676   1   0   0 # Au
    251      1   1  0.000000    -2.906999474     3.833289148     9.418372676   1   0   0 # Au
    252      1   1  0.000000    -2.906999474     0.503411967    11.772951412   1   0   0 # Au
    253      1   1  0.000000     1.418617779    14.655430812     0.000028868   0   0   0 # Au
    254      1   1  0.000000     4.302376009    14.655430812     0.000028868   0   0   0 # Au
    255      1   1  0.000000    -4.348898682    14.655430812     0.000028868   0   0   0 # Au
    256      1   1  0.000000    -1.465140451    14.655430812     0.000028868   0   0   0 # Au
    257      1   1  0.000000     4.302376009     9.660615040     0.000028868   0   0   0 # Au
    258      1   1  0.000000     7.186134240     9.660615040     0.000028868   0   0   0 # Au
    259      1   1  0.000000     5.744255125    12.158022926     0.000028868   0   0   0 # Au
    260      1   1  0.000000    -1.465140451     9.660615040     0.000028868   0   0   0 # Au
    261      1   1  0.000000     1.418617779     9.660615040     0.000028868   0   0   0 # Au
    262      1   1  0.000000    -0.023261336    12.158022926     0.000028868   0   0   0 # Au
    263      1   1  0.000000     2.860496894    12.158022926     0.000028868   0   0   0 # Au
    264      1   1  0.000000     1.418617779    11.325553631     2.354607603   0   0   0 # Au
    265      1   1  0.000000     4.302376009    11.325553631     2.354607603   0   0   0 # Au
    266      1   1  0.000000     2.860496894    13.822961517     2.354607603   0   0   0 # Au
    267      1   1  0.000000    -4.348898682     9.660615040     0.000028868   0   0   0 # Au
    268      1   1  0.000000    -5.790777797    12.158022926     0.000028868   0   0   0 # Au
    269      1   1  0.000000    -2.907019567    12.158022926     0.000028868   0   0   0 # Au
    270      1   1  0.000000    -4.348898682    11.325553631     2.354607603   0   0   0 # Au
    271      1   1  0.000000    -1.465140451    11.325553631     2.354607603   0   0   0 # Au
    272      1   1  0.000000    -2.907019567    13.822961517     2.354607603   0   0   0 # Au
    273      1   1  0.000000    -0.023261336    13.822961517     2.354607603   0   0   0 # Au
    274      1   1  0.000000    -1.465140451    12.990492221     4.709186338   0   0   0 # Au
    275      1   1  0.000000     1.418617779    12.990492221     4.709186338   0   0   0 # Au
    276      1   1  0.000000     1.418617779     4.665799268     0.000028868   0   0   0 # Au
    277      1   1  0.000000     4.302376009     4.665799268     0.000028868   0   0   0 # Au
    278      1   1  0.000000     2.860496894     7.163207154     0.000028868   0   0   0 # Au
    279      1   1  0.000000     5.744255125     7.163207154     0.000028868   0   0   0 # Au
    280      1   1  0.000000     4.302376009     6.330737859     2.354607603   0   0   0 # Au
    281      1   1  0.000000     7.186134240     6.330737859     2.354607603   0   0   0 # Au
    282      1   1  0.000000     5.744255125     8.828145745     2.354607603   0   0   0 # Au
    283      1   1  0.000000    -1.465140451     4.665799268     0.000028868   0   0   0 # Au
    284      1   1  0.000000    -2.907019567     7.163207154     0.000028868   0   0   0 # Au
    285      1   1  0.000000    -0.023261336     7.163207154     0.000028868   0   0   0 # Au
    286      1   1  0.000000    -1.465140451     6.330737859     2.354607603   0   0   0 # Au
    287      1   1  0.000000     1.418617779     6.330737859     2.354607603   0   0   0 # Au
    288      1   1  0.000000    -0.023261336     8.828145745     2.354607603   0   0   0 # Au
    289      1   1  0.000000     2.860496894     8.828145745     2.354607603   0   0   0 # Au
    290      1   1  0.000000     1.418617779     7.995676450     4.709186338   0   0   0 # Au
    291      1   1  0.000000     4.302376009     7.995676450     4.709186338   0   0   0 # Au
    292      1   1  0.000000     2.860496894    10.493084335     4.709186338   0   0   0 # Au
    293      1   1  0.000000    -2.907019567     8.828145745     2.354607603   0   0   0 # Au
    294      1   1  0.000000    -4.348898682     7.995676450     4.709186338   0   0   0 # Au
    295      1   1  0.000000    -1.465140451     7.995676450     4.709186338   0   0   0 # Au
    296      1   1  0.000000    -2.907019567    10.493084335     4.709186338   0   0   0 # Au
    297      1   1  0.000000    -0.023261336    10.493084335     4.709186338   0   0   0 # Au
    298      1   1  0.000000    -1.465140451     9.660615040     7.063765073   0   0   0 # Au
    299      1   1  0.000000     1.418617779     9.660615040     7.063765073   0   0   0 # Au
    300      1   1  0.000000    -0.023261336    12.158022926     7.063765073   0   0   0 # Au
    301      1   1  0.000000    11.511806941     2.168330145     0.000028868   0   0   0 # Au
    302      1   1  0.000000     5.744290480     2.168330145     0.000028868   0   0   0 # Au
    303      1   1  0.000000     8.628048710     2.168330145     0.000028868   0   0   0 # Au
    304      1   1  0.000000     7.186169595     1.335860850     2.354607603   0   0   0 # Au
    305      1   1  0.000000    10.069927825     1.335860850     2.354607603   0   0   0 # Au
    306      1   1  0.000000     8.628048710     3.833268736     2.354607603   0   0   0 # Au
    307      1   1  0.000000     8.628048710     0.503391555     4.709186338   0   0   0 # Au
    308      1   1  0.000000    -7.232636819     9.660615040     0.000028868   1   0   0 # Au
    309      1   1  0.000000    -4.348878589     4.665799268     0.000028868   1   0   0 # Au
    310      1   1  0.000000    -5.790757704     7.163207154     0.000028868   1   0   0 # Au
    311      1   1  0.000000    -7.232636819     6.330737859     2.354607603   1   0   0 # Au
    312      1   1  0.000000    -4.348878589     6.330737859     2.354607603   1   0   0 # Au
    313      1   1  0.000000    -5.790757704     8.828145745     2.354607603   1   0   0 # Au
    314      1   1  0.000000    -0.023261336    13.823002341     9.418401544   0   0   0 # Au
    315      1   1  0.000000    -1.465140451    12.990533046    11.772980279   0   0   0 # Au
    316      1   1  0.000000     1.418617779    12.990533046    11.772980279   0   0   0 # Au
    317      1   1  0.000000     1.418617779    14.655471637    14.127559014   0   0   0 # Au
    318      1   1  0.000000     4.302376009    14.655471637    14.127559014   0   0   0 # Au
    319      1   1  0.000000    -4.348898682    14.655471637    14.127559014   0   0   0 # Au
    320      1   1  0.000000    -1.465140451    14.655471637    14.127559014   0   0   0 # Au
    321      1   1  0.000000     7.186169595     4.665778856     0.000000000   0   0   0 # Au
    322      1   1  0.000000    10.069927825     4.665778856     0.000000000   0   0   0 # Au
    323      1   1  0.000000     8.628048710     7.163186742     0.000000000   0   0   0 # Au

