LAMMPS data file. msi2lmp v3.9.8 / 06 Oct 2016 / CGCMM for BTAH_822_single

     14 atoms
     15 bonds
     23 angles
     33 dihedrals
      7 impropers

  14 atom types
  15 bond types
  23 angle types
  33 dihedral types
   7 improper types

     1.983895260    35.921495260 xlo xhi
     7.143072256    42.719918157 ylo yhi
    -1.344326666    38.119352100 zlo zhi
     2.344301974     2.056973237    12.241887901 xy xz yz

Masses

   1  14.007000 # bhN1
   2   1.008000 # bhHn
   3  14.007000 # bhN2
   4  14.007000 # bhN3
   5  12.011150 # bhC2
   6   1.008000 # bhH2
   7  12.011150 # bhC1
   8   1.008000 # bhH1
   9  12.011150 # bhC6
  10   1.008000 # bhH6
  11  12.011150 # bhC5
  12   1.008000 # bhH5
  13  12.011150 # bhC4
  14  12.011150 # bhC3

Pair Coeffs # lj/cut/coul/long

   1   0.2000000142   3.2963252376 # bhN1
   2   0.0473512033   0.3980865645 # bhHn
   3   0.2000000142   3.2963252376 # bhN2
   4   0.2000000142   3.2963252376 # bhN3
   5   0.0989999944   3.3141432470 # bhC2
   6   0.0300001052   2.4200365710 # bhH2
   7   0.0989999944   3.3141432470 # bhC1
   8   0.0300001052   2.4200365710 # bhH1
   9   0.0989999944   3.3141432470 # bhC6
  10   0.0300001052   2.4200365710 # bhH6
  11   0.0989999944   3.3141432470 # bhC5
  12   0.0300001052   2.4200365710 # bhH5
  13   0.0699999881   3.5500532624 # bhC4
  14   0.0699999881   3.5500532624 # bhC3

Bond Coeffs # harmonic

   1   360.0000     1.3550 # bhN1-bhN2
   2   400.0000     1.3800 # bhN1-bhC4
   3   474.0000     1.0100 # bhN1-bhHn
   4   340.0000     1.2900 # bhN2-bhN3
   5   400.0000     1.3800 # bhN3-bhC3
   6   305.0000     1.3750 # bhC2-bhC1
   7   300.0000     1.3600 # bhC2-bhC3
   8   340.0000     1.0800 # bhC2-bhH2
   9   305.0000     1.3750 # bhC1-bhC6
  10   340.0000     1.0800 # bhC1-bhH1
  11   305.0000     1.3750 # bhC6-bhC5
  12   340.0000     1.0800 # bhC6-bhH6
  13   300.0000     1.3600 # bhC5-bhC4
  14   340.0000     1.0800 # bhC5-bhH5
  15   360.0000     1.3850 # bhC4-bhC3

Angle Coeffs # harmonic

   1   110.0000   106.8000 # bhN2-bhN1-bhC4
   2    32.0000   119.5000 # bhHn-bhN1-bhN2
   3    28.0000   126.0000 # bhHn-bhN1-bhC4
   4   160.0000   102.2000 # bhN1-bhN2-bhN3
   5   110.0000   106.8000 # bhN2-bhN3-bhC3
   6    50.0000   120.0000 # bhC1-bhC2-bhC3
   7    30.0000   120.0000 # bhH2-bhC2-bhC1
   8    28.0000   126.0000 # bhH2-bhC2-bhC3
   9    40.0000   120.0000 # bhC2-bhC1-bhC6
  10    30.0000   120.0000 # bhC2-bhC1-bhH1
  11    30.0000   120.0000 # bhH1-bhC1-bhC6
  12    40.0000   120.0000 # bhC1-bhC6-bhC5
  13    30.0000   120.0000 # bhC1-bhC6-bhH6
  14    30.0000   120.0000 # bhH6-bhC6-bhC5
  15    50.0000   120.0000 # bhC6-bhC5-bhC4
  16    30.0000   120.0000 # bhC6-bhC5-bhH5
  17    28.0000   126.0000 # bhH5-bhC5-bhC4
  18   130.0000   132.6000 # bhN1-bhC4-bhC5
  19   110.0000   106.8000 # bhN1-bhC4-bhC3
  20    50.0000   120.0000 # bhC5-bhC4-bhC3
  21   130.0000   130.0000 # bhN3-bhC3-bhC2
  22   110.0000   106.8000 # bhN3-bhC3-bhC4
  23    50.0000   120.0000 # bhC2-bhC3-bhC4

Dihedral Coeffs # harmonic

  1    14.0000  -1   2 # bhC4-bhN1-bhN2-bhN3
  2     2.5000  -1   2 # bhHn-bhN1-bhN2-bhN3
  3     3.0000  -1   2 # bhN2-bhN1-bhC4-bhC5
  4     6.5000  -1   2 # bhN2-bhN1-bhC4-bhC3
  5     0.2000  -1   2 # bhHn-bhN1-bhC4-bhC5
  6     0.8500  -1   2 # bhHn-bhN1-bhC4-bhC3
  7    14.0000  -1   2 # bhN1-bhN2-bhN3-bhC3
  8     1.5000  -1   2 # bhN2-bhN3-bhC3-bhC2
  9     6.5000  -1   2 # bhN2-bhN3-bhC3-bhC4
 10     3.0000  -1   2 # bhC3-bhC2-bhC1-bhC6
 11     3.0000  -1   2 # bhC3-bhC2-bhC1-bhH1
 12     4.2000  -1   2 # bhH2-bhC2-bhC1-bhC6
 13     2.4000  -1   2 # bhH2-bhC2-bhC1-bhH1
 14     1.5000  -1   2 # bhC1-bhC2-bhC3-bhN3
 15     3.0000  -1   2 # bhC1-bhC2-bhC3-bhC4
 16     0.8000  -1   2 # bhH2-bhC2-bhC3-bhN3
 17     3.0000  -1   2 # bhH2-bhC2-bhC3-bhC4
 18     3.1000  -1   2 # bhC2-bhC1-bhC6-bhC5
 19     4.2000  -1   2 # bhC2-bhC1-bhC6-bhH6
 20     4.2000  -1   2 # bhH1-bhC1-bhC6-bhC5
 21     2.4000  -1   2 # bhH1-bhC1-bhC6-bhH6
 22     3.0000  -1   2 # bhC1-bhC6-bhC5-bhC4
 23     4.2000  -1   2 # bhC1-bhC6-bhC5-bhH5
 24     3.0000  -1   2 # bhH6-bhC6-bhC5-bhC4
 25     2.4000  -1   2 # bhH6-bhC6-bhC5-bhH5
 26     3.0000  -1   2 # bhC6-bhC5-bhC4-bhN1
 27     3.0000  -1   2 # bhC6-bhC5-bhC4-bhC3
 28     3.0000  -1   2 # bhH5-bhC5-bhC4-bhN1
 29     3.0000  -1   2 # bhH5-bhC5-bhC4-bhC3
 30    10.0000  -1   2 # bhN1-bhC4-bhC3-bhN3
 31     1.5000  -1   2 # bhN1-bhC4-bhC3-bhC2
 32     1.5000  -1   2 # bhC5-bhC4-bhC3-bhN3
 33     3.0000  -1   2 # bhC5-bhC4-bhC3-bhC2

Improper Coeffs # cvff

    1     0.5000  -1   2 # bhC4-bhN1-bhN2-bhHn
    2     0.3700  -1   2 # bhC1-bhC2-bhC3-bhH2
    3     0.3700  -1   2 # bhC2-bhC1-bhC6-bhH1
    4     0.3700  -1   2 # bhC1-bhC6-bhC5-bhH6
    5     0.3700  -1   2 # bhC4-bhC5-bhC6-bhH5
    6     0.3700  -1   2 # bhC3-bhC4-bhC5-bhN1
    7     0.3700  -1   2 # bhC2-bhC3-bhC4-bhN3

Atoms # full

      1      1   1  0.280000    20.184571030    25.142770320    20.161278230   0   0   0 # bhN1
      2      1   2  0.350000    20.655993432    24.567317092    20.772570614   0   0   0 # bhHn
      3      1   3 -0.370000    20.116771673    26.469008031    20.337680874   0   0   0 # bhN2
      4      1   4 -0.410000    19.375417210    26.998627027    19.402589006   0   0   0 # bhN3
      5      1   5 -0.180000    18.136216670    25.995629439    17.456635006   0   0   0 # bhC2
      6      1   6  0.200000    17.775017578    26.784502503    17.122180328   0   0   0 # bhH2
      7      1   7 -0.160000    17.900681875    24.791018341    16.866061053   0   0   0 # bhC1
      8      1   8  0.180000    17.371989555    24.763918782    16.102044232   0   0   0 # bhH1
      9      1   9 -0.140000    18.419870395    23.605369414    17.361922177   0   0   0 # bhC6
     10      1  10  0.160000    18.220383168    22.808673266    16.926835118   0   0   0 # bhH6
     11      1  11 -0.120000    19.206350014    23.572565482    18.460393675   0   0   0 # bhC5
     12      1  12  0.140000    19.557036417    22.775735374    18.787547572   0   0   0 # bhH5
     13      1  13 -0.250000    19.463122895    24.786750022    19.072080696   0   0   0 # bhC4
     14      1  14  0.320000    18.954311733    25.979047801    18.595359457   0   0   0 # bhC3

Bonds

     1   1      1      3
     2   2      1     13
     3   3      1      2
     4   4      3      4
     5   5      4     14
     6   6      5      7
     7   7      5     14
     8   8      5      6
     9   9      7      9
    10  10      7      8
    11  11      9     11
    12  12      9     10
    13  13     11     13
    14  14     11     12
    15  15     13     14

Angles

     1   1      3      1     13
     2   2      2      1      3
     3   3      2      1     13
     4   4      1      3      4
     5   5      3      4     14
     6   6      7      5     14
     7   7      6      5      7
     8   8      6      5     14
     9   9      5      7      9
    10  10      5      7      8
    11  11      8      7      9
    12  12      7      9     11
    13  13      7      9     10
    14  14     10      9     11
    15  15      9     11     13
    16  16      9     11     12
    17  17     12     11     13
    18  18      1     13     11
    19  19      1     13     14
    20  20     11     13     14
    21  21      4     14      5
    22  22      4     14     13
    23  23      5     14     13

Dihedrals

     1   1     13      1      3      4
     2   2      2      1      3      4
     3   3      3      1     13     11
     4   4      3      1     13     14
     5   5      2      1     13     11
     6   6      2      1     13     14
     7   7      1      3      4     14
     8   8      3      4     14      5
     9   9      3      4     14     13
    10  10     14      5      7      9
    11  11     14      5      7      8
    12  12      6      5      7      9
    13  13      6      5      7      8
    14  14      7      5     14      4
    15  15      7      5     14     13
    16  16      6      5     14      4
    17  17      6      5     14     13
    18  18      5      7      9     11
    19  19      5      7      9     10
    20  20      8      7      9     11
    21  21      8      7      9     10
    22  22      7      9     11     13
    23  23      7      9     11     12
    24  24     10      9     11     13
    25  25     10      9     11     12
    26  26      9     11     13      1
    27  27      9     11     13     14
    28  28     12     11     13      1
    29  29     12     11     13     14
    30  30      1     13     14      4
    31  31      1     13     14      5
    32  32     11     13     14      4
    33  33     11     13     14      5

Impropers

     1   1     13      1      3      2 
     2   2      7      5     14      6 
     3   3      5      7      9      8 
     4   4      7      9     11     10 
     5   5     13     11      9     12 
     6   6     14     13     11      1 
     7   7      5     14     13      4 

